# sample LAMMPS input script for thermal conductivity of liquid LJ
# Green-Kubo method via compute heat/flux and fix ave/correlate
log 1000kheatf.log
# settings

units metal				# sets units to 'metal' units - Atomic units w/ ps timescale

variable    T equal 1000
variable    V equal vol
variable    dt equal 0.001
variable    p equal 50000     # correlation length
variable    s equal 10      # sample interval
variable    d equal $p*$s   # dump interval

# convert from LAMMPS real units to SI
variable    kB equal 1.3806504e-23    # [J/K] Boltzmann
variable    ev2J equal 1.6022e-19
variable    A2m equal 1.0e-10
variable    ps2s equal 1.0e-12
variable    convert equal ${ev2J}*${ev2J}/${ps2s}/${A2m}

dimension	3
boundary	p p p		# periodic BCs on x,y plane faces, z dimension fixed volume

atom_style	atomic		# default attribute style
neighbor	1.0	bin		# sets maximum neighbor search radius to cutoff+value, using bin-sort algorithm
neigh_modify delay 5 check yes 	# checks if neighbor list should be rebuilt every 5 steps

# setup problem

#---------- Create geometry using internal stuff ---------------------

lattice		diamond 5.43095 orient x 1 0 0 orient y 0 1 0 orient z 0 0 1 #Lattice constant for carbon diamond orienting cube along crystal directions
region		box block 0 15 0 15 0 15 
create_box	1 box			# initialize box
create_atoms 	1 box 			# create atoms

mass	1	12.0107		# type 1 = C

#--------------- FORCE FIELDS -------------------------
pair_style tersoff
pair_coeff * * SiC.tersoff Si

velocity	all create $T 87287

# 1st equilibration run

fix		1 all nvt temp $T $T 0.5
thermo		5000
run		100000

velocity	all scale $T

unfix		1

# thermal conductivity calculation

reset_timestep  0

compute         myKE all ke/atom
compute         myPE all pe/atom
compute         myStress all stress/atom NULL virial
compute         flux all heat/flux myKE myPE myStress
variable        Jx equal c_flux[1]/vol
variable        Jy equal c_flux[2]/vol
variable        Jz equal c_flux[3]/vol

fix	        1 all nve

#dump 2 all custom 1 1000kheatflux.dump id x y z v_Jx v_Jy v_Jz

thermo	        1
thermo_style    custom step temp v_Jx v_Jy v_Jz

run             1000000
